p cnf 132 464
-4 -2 0
-4 3 0
2 -3 4 0
1 4 -5 0
-1 -4 -5 0
1 -4 5 0
-1 4 5 0
-8 7 0
-8 -6 0
-7 6 8 0
-10 -8 0
-10 -9 0
8 9 10 0
-12 11 0
-12 6 0
-11 -6 12 0
-13 6 0
-13 3 0
-6 -3 13 0
14 -3 0
14 -13 0
3 13 -14 0
6 15 0
-6 15 0
-14 -15 -16 0
14 15 -16 0
-14 15 16 0
14 -15 16 0
-12 -16 -17 0
12 16 -17 0
-12 16 17 0
12 -16 17 0
-18 10 0
-18 17 0
-10 -17 18 0
19 6 0
19 18 0
-6 -18 -19 0
-20 5 0
-20 -19 0
-5 19 20 0
21 14 0
21 16 0
-14 -16 -21 0
22 2 0
22 -1 0
-2 1 -22 0
-23 -11 0
-23 22 0
11 -22 23 0
25 -24 0
25 15 0
24 -15 -25 0
25 -26 -27 0
-25 26 -27 0
25 26 27 0
-25 -26 27 0
-28 -11 0
-28 -27 0
11 27 28 0
29 -23 0
29 -28 0
23 28 -29 0
-21 29 -30 0
21 -29 -30 0
-21 -29 30 0
21 29 30 0
32 2 0
32 -31 0
-2 31 -32 0
33 -14 0
33 32 0
14 -32 -33 0
-34 32 0
-34 2 0
-32 -2 34 0
-35 -33 0
-35 34 0
33 -34 35 0
11 -13 -36 0
-11 13 -36 0
11 13 36 0
-11 -13 36 0
-37 36 0
-37 -14 0
-36 14 37 0
38 35 0
38 -37 0
-35 37 -38 0
-40 31 0
-40 39 0
-31 -39 40 0
-41 -38 0
-41 40 0
38 -40 41 0
-26 -35 -42 0
26 35 -42 0
-26 35 42 0
26 -35 42 0
10 42 -43 0
-10 -42 -43 0
10 -42 43 0
-10 42 43 0
44 -41 0
44 43 0
41 -43 -44 0
-30 44 -45 0
30 -44 -45 0
-30 -44 45 0
30 44 45 0
20 45 -46 0
-20 -45 -46 0
20 -45 46 0
-20 45 46 0
-31 -24 -47 0
31 24 -47 0
-31 24 47 0
31 -24 47 0
-47 42 -48 0
47 -42 -48 0
-47 -42 48 0
47 42 48 0
49 16 0
49 -47 0
-16 47 -49 0
-48 49 -50 0
48 -49 -50 0
-48 -49 50 0
48 49 50 0
-51 -10 0
-51 -1 0
10 1 51 0
52 -37 0
52 -51 0
37 51 -52 0
-53 -24 0
-53 -34 0
24 34 53 0
54 -52 0
54 -53 0
52 53 -54 0
55 34 0
55 35 0
-34 -35 -55 0
56 -54 0
56 55 0
54 -55 -56 0
57 -2 0
57 -2 0
2 -57 0
-58 56 0
-58 57 0
-56 -57 58 0
11 -35 -59 0
-11 35 -59 0
11 35 59 0
-11 -35 59 0
60 58 0
60 -59 0
-58 59 -60 0
-50 60 -61 0
50 -60 -61 0
-50 -60 61 0
50 60 61 0
63 -53 0
63 -62 0
53 62 -63 0
-51 17 -64 0
51 -17 -64 0
-51 -17 64 0
51 17 64 0
-65 -63 0
-65 -64 0
63 64 65 0
-66 -32 0
-66 32 0
-67 66 0
-67 -22 0
-66 22 67 0
68 -67 0
68 -2 0
67 2 -68 0
-69 16 0
-69 68 0
-16 -68 69 0
-8 13 -70 0
8 -13 -70 0
-8 -13 70 0
8 13 70 0
72 70 0
72 -71 0
-70 71 -72 0
73 -69 0
73 72 0
69 -72 -73 0
-74 65 0
-74 -73 0
-65 73 74 0
-75 -61 0
-75 74 0
61 -74 75 0
-76 -46 0
-76 -75 0
46 75 76 0
16 37 -77 0
-16 -37 -77 0
16 -37 77 0
-16 37 77 0
-78 -25 0
-78 11 0
25 -11 78 0
-15 78 -79 0
15 -78 -79 0
-15 -78 79 0
15 78 79 0
80 42 0
80 -14 0
-42 14 -80 0
81 -79 0
81 80 0
79 -80 -81 0
82 77 0
82 -81 0
-77 81 -82 0
-83 -24 0
-83 16 0
24 -16 83 0
-84 42 0
-84 -8 0
-42 8 84 0
-31 -84 -85 0
31 84 -85 0
-31 84 85 0
31 -84 85 0
3 25 -86 0
-3 -25 -86 0
3 -25 86 0
-3 25 86 0
-87 -85 0
-87 -86 0
85 86 87 0
-88 -83 0
-88 87 0
83 -87 88 0
89 82 0
89 88 0
-82 -88 -89 0
47 -11 -90 0
-47 11 -90 0
47 11 90 0
-47 -11 90 0
-91 -90 0
-91 51 0
90 -51 91 0
-92 9 0
-92 -7 0
-9 7 92 0
-93 51 0
-93 92 0
-51 -92 93 0
1 -39 -94 0
-1 39 -94 0
1 39 94 0
-1 -39 94 0
94 -16 -95 0
-94 16 -95 0
94 16 95 0
-94 -16 95 0
-36 -33 -96 0
36 33 -96 0
-36 33 96 0
36 -33 96 0
-95 96 -97 0
95 -96 -97 0
-95 -96 97 0
95 96 97 0
-93 97 -98 0
93 -97 -98 0
-93 -97 98 0
93 97 98 0
99 -91 0
99 -98 0
91 98 -99 0
100 3 0
100 -8 0
-3 8 -100 0
101 -2 0
101 -70 0
2 70 -101 0
103 -102 0
103 -31 0
102 31 -103 0
-18 -103 -104 0
18 103 -104 0
-18 103 104 0
18 -103 104 0
-105 -86 0
-105 -104 0
86 104 105 0
-14 105 -106 0
14 -105 -106 0
-14 -105 106 0
14 105 106 0
107 106 0
107 90 0
-106 -90 -107 0
108 -79 0
108 -78 0
79 78 -108 0
107 -108 -109 0
-107 108 -109 0
107 108 109 0
-107 -108 109 0
110 101 0
110 -109 0
-101 109 -110 0
-100 110 -111 0
100 -110 -111 0
-100 -110 111 0
100 110 111 0
112 -54 0
112 18 0
54 -18 -112 0
113 -68 0
113 112 0
68 -112 -113 0
-114 71 0
-114 26 0
-71 -26 114 0
-115 113 0
-115 114 0
-113 -114 115 0
116 -54 0
116 47 0
54 -47 -116 0
-117 79 0
-117 116 0
-79 -116 117 0
-8 26 -118 0
8 -26 -118 0
-8 -26 118 0
8 26 118 0
119 11 0
119 -118 0
-11 118 -119 0
120 -117 0
120 -119 0
117 119 -120 0
-121 115 0
-121 -120 0
-115 120 121 0
122 111 0
122 121 0
-111 -121 -122 0
-123 -3 0
-123 -39 0
3 39 123 0
-124 2 0
-124 123 0
-2 -123 124 0
-125 35 0
-125 8 0
-35 -8 125 0
124 125 -126 0
-124 -125 -126 0
124 -125 126 0
-124 125 126 0
-127 122 0
-127 126 0
-122 -126 127 0
42 -16 -128 0
-42 16 -128 0
42 16 128 0
-42 -16 128 0
129 -127 0
129 128 0
127 -128 -129 0
130 -99 0
130 -129 0
99 129 -130 0
131 89 0
131 -130 0
-89 130 -131 0
-132 76 0
-132 -131 0
-76 131 132 0
43 3 0
-78 110 -62 4 0
110 38 0
18 126 71 -78 0
-88 24 25 84 30 -35 0
132 56 -25 48 55 0
-59 93 6 0
56 -77 -46 0
5 79 -116 28 0
-7 108 -114 -91 75 0
89 -67 108 0
-126 128 49 12 16 0
8 -121 -32 -9 -102 0
5 17 0
38 -77 36 -55 -50 0
-42 72 0
128 26 0
-47 -61 -117 36 0
19 62 0
-25 -105 0
-105 -83 0
84 -102 -81 60 -29 0
41 -120 77 0
-8 73 -44 0
83 -109 0
-73 -122 -117 -92 24 11 0
-118 -127 75 0
4 41 23 8 0
-84 85 -86 -69 82 -25 0
-114 123 -58 0
-19 18 -20 -3 107 41 0
-8 -69 79 0
-120 27 -35 0
-104 -75 -64 14 0
-66 70 128 -14 -101 0
-96 -37 -94 -66 47 -124 0
97 11 68 0
16 74 -88 0
61 -14 -27 13 0
94 63 -48 -67 -19 0
-59 37 85 0
113 -93 108 36 0
-47 85 83 0
87 -12 -83 -25 0
-75 -129 -84 99 0
-117 -5 114 -113 74 0
-104 -98 -51 -68 0
-47 -93 -65 50 -94 -7 0
89 45 0
-101 1 -67 0
30 23 -101 0
-115 18 0
-73 -86 0
11 102 114 0
43 -18 0
-77 -58 15 0
90 88 33 40 -72 118 0
-14 71 81 0
128 88 -29 0
-48 -66 6 -4 -1 0
-41 128 127 0
121 -125 77 56 0
-48 -80 122 -115 0
4 -61 -84 132 126 96 0
116 -108 -42 18 0
6 63 -44 0
-20 15 0
-88 -91 0
-12 -47 80 -73 -11 -57 0
129 30 -131 29 -28 -45 0
125 62 -109 -124 -54 -17 0
68 -121 75 -58 74 -114 0
12 -6 -107 18 13 -48 0
-14 -91 50 -16 121 0
-130 119 0
50 -4 49 72 94 -106 0
-54 -131 -82 -52 89 83 0
132 0
